certificates/rado_a6_c166_N28.cnf
c Rad2 upper bound instance: x1 + 6*x2 - x3 = 166, interval [1,28]
p cnf 28 172
1 3 28 0
-1 -3 -28 0
2 4 28 0
-2 -4 -28 0
3 5 28 0
-3 -5 -28 0
4 6 28 0
-4 -6 -28 0
1 5 27 0
-1 -5 -27 0
5 7 28 0
-5 -7 -28 0
2 6 27 0
-2 -6 -27 0
6 8 28 0
-6 -8 -28 0
3 7 27 0
-3 -7 -27 0
7 9 28 0
-7 -9 -28 0
4 8 27 0
-4 -8 -27 0
8 10 28 0
-8 -10 -28 0
5 9 27 0
-5 -9 -27 0
9 11 28 0
-9 -11 -28 0
6 10 27 0
-6 -10 -27 0
10 12 28 0
-10 -12 -28 0
1 11 26 0
-1 -11 -26 0
7 11 27 0
-7 -11 -27 0
11 13 28 0
-11 -13 -28 0
2 12 26 0
-2 -12 -26 0
8 12 27 0
-8 -12 -27 0
12 14 28 0
-12 -14 -28 0
3 13 26 0
-3 -13 -26 0
9 13 27 0
-9 -13 -27 0
13 15 28 0
-13 -15 -28 0
4 14 26 0
-4 -14 -26 0
10 14 27 0
-10 -14 -27 0
14 16 28 0
-14 -16 -28 0
5 15 26 0
-5 -15 -26 0
11 15 27 0
-11 -15 -27 0
15 17 28 0
-15 -17 -28 0
6 16 26 0
-6 -16 -26 0
12 16 27 0
-12 -16 -27 0
16 18 28 0
-16 -18 -28 0
1 17 25 0
-1 -17 -25 0
7 17 26 0
-7 -17 -26 0
13 17 27 0
-13 -17 -27 0
17 19 28 0
-17 -19 -28 0
2 18 25 0
-2 -18 -25 0
8 18 26 0
-8 -18 -26 0
14 18 27 0
-14 -18 -27 0
18 20 28 0
-18 -20 -28 0
3 19 25 0
-3 -19 -25 0
9 19 26 0
-9 -19 -26 0
15 19 27 0
-15 -19 -27 0
19 21 28 0
-19 -21 -28 0
4 20 25 0
-4 -20 -25 0
10 20 26 0
-10 -20 -26 0
16 20 27 0
-16 -20 -27 0
20 22 28 0
-20 -22 -28 0
5 21 25 0
-5 -21 -25 0
11 21 26 0
-11 -21 -26 0
17 21 27 0
-17 -21 -27 0
21 23 28 0
-21 -23 -28 0
6 22 25 0
-6 -22 -25 0
12 22 26 0
-12 -22 -26 0
18 22 27 0
-18 -22 -27 0
22 24 28 0
-22 -24 -28 0
1 23 24 0
-1 -23 -24 0
7 23 25 0
-7 -23 -25 0
13 23 26 0
-13 -23 -26 0
19 23 27 0
-19 -23 -27 0
23 25 28 0
-23 -25 -28 0
2 24 0
-2 -24 0
8 24 25 0
-8 -24 -25 0
14 24 26 0
-14 -24 -26 0
20 24 27 0
-20 -24 -27 0
24 26 28 0
-24 -26 -28 0
3 24 25 0
-3 -24 -25 0
9 25 0
-9 -25 0
15 25 26 0
-15 -25 -26 0
21 25 27 0
-21 -25 -27 0
25 27 28 0
-25 -27 -28 0
4 24 26 0
-4 -24 -26 0
10 25 26 0
-10 -25 -26 0
16 26 0
-16 -26 0
22 26 27 0
-22 -26 -27 0
26 28 0
-26 -28 0
5 24 27 0
-5 -24 -27 0
11 25 27 0
-11 -25 -27 0
17 26 27 0
-17 -26 -27 0
23 27 0
-23 -27 0
6 24 28 0
-6 -24 -28 0
12 25 28 0
-12 -25 -28 0
18 26 28 0
-18 -26 -28 0
24 27 28 0
-24 -27 -28 0
