certificates/rado_a6_c166_N28.drat
-28 0
26 0
-16 0
14 0
18 0
-4 0
-24 0
-8 0
-27 0
2 0
6 0
0
